ilp_joint/output/orbit_ilp.lp
Maximize
  3.1143473771178546e-04 Z_379_0_0 + 8.8764257233143974e-04 Z_379_0_1
   + 0.7644215563289062 Z_379_0_2 + 0.00162409521928654 Z_379_0_3
   + 0.1327552711417641 Z_379_0_4 + 0.0127186640520992 Z_657_1_0
   + 0.00597467179118918 Z_657_1_1 + 0.0344713682321916 Z_657_1_2
   + 0.00200740408013589 Z_657_1_3 + 0.8448278918443842 Z_657_1_4
   + 2.7239181815426968e-04 Z_657_2_0 + 0.00270533398226026 Z_657_2_1
   + 0.8368342608039373 Z_657_2_2 + 0.0012638513344449 Z_657_2_3
   + 0.0589241620612035 Z_657_2_4 + 1.5052376664293691e-04 Z_657_0_0
   + 1.2202867278609565e-04 Z_657_0_1 + 0.0352369126865404 Z_657_0_2
   + 6.2810640271405364e-04 Z_657_0_3 + 0.8638624284713164 Z_657_0_4 + [
   0.2 Z_379_0_0 * Z_657_2_0 + 0.2 Z_379_0_1 * Z_657_2_1
   + 0.2 Z_379_0_2 * Z_657_2_2 + 0.2 Z_379_0_3 * Z_657_2_3 ] / 2 
Subject To
 constraint1_3790: Z_379_0_0 + Z_379_0_1 + Z_379_0_2 + Z_379_0_3
   + Z_379_0_4 <= 1
 constraint1_6571: Z_657_1_0 + Z_657_1_1 + Z_657_1_2 + Z_657_1_3
   + Z_657_1_4 <= 1
 constraint1_6572: Z_657_2_0 + Z_657_2_1 + Z_657_2_2 + Z_657_2_3
   + Z_657_2_4 <= 1
 constraint1_6570: Z_657_0_0 + Z_657_0_1 + Z_657_0_2 + Z_657_0_3
   + Z_657_0_4 <= 1
 constraint2_3790: Z_379_0_0 <= 1
 constraint2_3791: Z_379_0_1 <= 1
 constraint2_3792: Z_379_0_2 <= 1
 constraint2_3793: Z_379_0_3 <= 1
 constraint2_4860: <= 1
 constraint2_4861: <= 1
 constraint2_4862: <= 1
 constraint2_4863: <= 1
 constraint2_2930: <= 1
 constraint2_2931: <= 1
 constraint2_2932: <= 1
 constraint2_2933: <= 1
 constraint2_2230: <= 1
 constraint2_2231: <= 1
 constraint2_2232: <= 1
 constraint2_2233: <= 1
 constraint2_6570: Z_657_1_0 + Z_657_2_0 + Z_657_0_0 <= 1
 constraint2_6571: Z_657_1_1 + Z_657_2_1 + Z_657_0_1 <= 1
 constraint2_6572: Z_657_1_2 + Z_657_2_2 + Z_657_0_2 <= 1
 constraint2_6573: Z_657_1_3 + Z_657_2_3 + Z_657_0_3 <= 1
Bounds
Binaries
 Z_379_0_0 Z_379_0_1 Z_379_0_2 Z_379_0_3 Z_379_0_4 Z_657_1_0 Z_657_1_1
 Z_657_1_2 Z_657_1_3 Z_657_1_4 Z_657_2_0 Z_657_2_1 Z_657_2_2 Z_657_2_3
 Z_657_2_4 Z_657_0_0 Z_657_0_1 Z_657_0_2 Z_657_0_3 Z_657_0_4
End
