ilp_joint/output/orbit_ilp.mps
NAME orbit_srl_ilp
* Max problem is converted into Min one
ROWS
 N  OBJ
 L  constraint1_290
 L  constraint2_290
 L  constraint2_291
 L  constraint2_292
 L  constraint2_293
 L  constraint2_5500
 L  constraint2_5501
 L  constraint2_5502
 L  constraint2_5503
COLUMNS
    MARKER    'MARKER'                 'INTORG'
    Z_29_0_0  OBJ       -2.6299378340889282e-04
    Z_29_0_0  constraint1_290  1
    Z_29_0_0  constraint2_290  1
    Z_29_0_1  OBJ       -2.0090264863157695e-03
    Z_29_0_1  constraint1_290  1
    Z_29_0_1  constraint2_291  1
    Z_29_0_2  OBJ       -6.7376601795739521e-01
    Z_29_0_2  constraint1_290  1
    Z_29_0_2  constraint2_292  1
    Z_29_0_3  OBJ       -2.2717830602785385e-03
    Z_29_0_3  constraint1_290  1
    Z_29_0_3  constraint2_293  1
    Z_29_0_4  OBJ       -2.2169017871260158e-01
    Z_29_0_4  constraint1_290  1
    MARKER    'MARKER'                 'INTEND'
RHS
    RHS1      constraint1_290  1
    RHS1      constraint2_290  1
    RHS1      constraint2_291  1
    RHS1      constraint2_292  1
    RHS1      constraint2_293  1
    RHS1      constraint2_5500  1
    RHS1      constraint2_5501  1
    RHS1      constraint2_5502  1
    RHS1      constraint2_5503  1
BOUNDS
 UP BND1      Z_29_0_0  1
 UP BND1      Z_29_0_1  1
 UP BND1      Z_29_0_2  1
 UP BND1      Z_29_0_3  1
 UP BND1      Z_29_0_4  1
ENDATA
