ilp_joint/output/orbit_ilp.sol
# Solution for model orbit_srl_ilp
# Objective value = 3.4099461374485442e+00
Z_379_0_0 0
Z_379_0_1 0
Z_379_0_2 1
Z_379_0_3 0
Z_379_0_4 0
Z_657_1_0 0
Z_657_1_1 0
Z_657_1_2 0
Z_657_1_3 0
Z_657_1_4 1
Z_657_2_0 0
Z_657_2_1 0
Z_657_2_2 1
Z_657_2_3 0
Z_657_2_4 0
Z_657_0_0 0
Z_657_0_1 0
Z_657_0_2 0
Z_657_0_3 0
Z_657_0_4 1
